CPXPARAM_TimeLimit                               3600
CPXPARAM_Read_DataCheck                          1
Parallel mode: deterministic, using up to 8 threads for concurrent optimization.
Tried aggregator 1 time.
No LP presolve or aggregator reductions.
Presolve time = 0.00 sec. (3.13 ticks)

Iteration log . . .
Iteration:     1   Dual objective     =          1207.000000
Perturbation started.
Iteration:   101   Dual objective     =          1207.000000
Iteration:   238   Dual objective     =          1207.024613
Iteration:   389   Dual objective     =          1207.058739
Iteration:   614   Dual objective     =          1207.058743
Iteration:   841   Dual objective     =          1207.058747
Iteration:  1067   Dual objective     =          1207.058750
Iteration:  1295   Dual objective     =          1207.058753
Iteration:  1516   Dual objective     =          1207.058755
Iteration:  1740   Dual objective     =          1207.058756
Iteration:  1966   Dual objective     =          1207.058757
Iteration:  2205   Dual objective     =          1207.058758
Iteration:  2438   Dual objective     =          1207.058759
Removing perturbation.

Dual simplex solved model.

